DATASET = "thpack3";
INSTANCE = "033";

WIDTH = 233;
HEIGHT = 220;
LENGTH = 587;

NO_OF_SHAPES = 8;
size = [|
  40,36,21 |
  76,45,31 |
  63,54,51 |
  114,77,69 |
  95,57,53 |
  92,36,20 |
  90,84,47 |
  84,69,24 |
|];

verticality = [|
  1,1,1 |
  0,1,1 |
  1,1,1 |
  1,1,1 |
  1,1,1 |
  0,1,1 |
  1,1,1 |
  0,0,1 |
|];

box_count = [
  14,
  15,
  20,
  17,
  20,
  14,
  15,
  16,
];
